p cnf 412 698
22 -59 65 76 0
22 -59 65 -76 0
2 -8 71 77 0
2 -8 71 -77 0
6 4 21 78 0
6 4 21 -78 0
-17 -29 -6 79 0
-17 -29 -6 -79 0
7 -55 26 80 0
7 -55 26 -80 0
11 -72 75 81 0
11 -72 75 -81 0
-35 -71 8 82 0
-35 -71 8 -82 0
2 -57 -43 83 0
2 -57 -43 -83 0
31 -26 -5 84 0
31 -26 -5 -84 0
-26 53 -24 85 0
-26 53 -24 -85 0
-54 -25 -61 86 0
-54 -25 -61 -86 0
-65 18 44 87 0
-65 18 44 -87 0
-20 16 4 88 0
-20 16 4 -88 0
-62 61 26 89 0
-62 61 26 -89 0
65 -31 2 90 0
65 -31 2 -90 0
64 54 49 91 0
64 54 49 -91 0
21 -55 66 92 0
21 -55 66 -92 0
38 -9 17 93 0
38 -9 17 -93 0
12 24 -42 94 0
12 24 -42 -94 0
68 -59 67 95 0
68 -59 67 -95 0
-69 -36 74 96 0
-69 -36 74 -96 0
-65 13 15 97 0
-65 13 15 -97 0
68 -17 10 98 0
68 -17 10 -98 0
29 5 -68 99 0
29 5 -68 -99 0
25 -16 -49 100 0
25 -16 -49 -100 0
-24 35 69 101 0
-24 35 69 -101 0
56 -40 -43 102 0
56 -40 -43 -102 0
29 64 -67 103 0
29 64 -67 -103 0
-63 -35 52 104 0
-63 -35 52 -104 0
38 -15 25 105 0
38 -15 25 -105 0
-5 -68 58 106 0
-5 -68 58 -106 0
-27 -40 -50 107 0
-27 -40 -50 -107 0
45 -29 -33 108 0
45 -29 -33 -108 0
-9 54 -73 109 0
-9 54 -73 -109 0
70 71 -3 110 0
70 71 -3 -110 0
43 11 40 111 0
43 11 40 -111 0
35 -63 -9 112 0
35 -63 -9 -112 0
74 16 -12 113 0
74 16 -12 -113 0
44 61 47 114 0
44 61 47 -114 0
-23 15 38 115 0
-23 15 38 -115 0
10 -32 -50 116 0
10 -32 -50 -116 0
70 75 -62 117 0
70 75 -62 -117 0
-58 -27 -65 118 0
-58 -27 -65 -118 0
43 -31 -57 119 0
43 -31 -57 -119 0
50 -7 15 120 0
50 -7 15 -120 0
-23 59 66 121 0
-23 59 66 -121 0
-71 13 -31 122 0
-71 13 -31 -122 0
31 -74 -12 123 0
31 -74 -12 -123 0
-17 -35 29 124 0
-17 -35 29 -124 0
73 24 -20 125 0
73 24 -20 -125 0
47 -58 -52 126 0
47 -58 -52 -126 0
69 50 8 127 0
69 50 8 -127 0
9 62 22 128 0
9 62 22 -128 0
-18 23 48 129 0
-18 23 48 -129 0
58 18 46 130 0
58 18 46 -130 0
-70 -1 -65 131 0
-70 -1 -65 -131 0
-41 -31 -20 132 0
-41 -31 -20 -132 0
71 63 -37 133 0
71 63 -37 -133 0
31 -25 65 134 0
31 -25 65 -134 0
-26 -53 -28 135 0
-26 -53 -28 -135 0
-4 49 58 136 0
-4 49 58 -136 0
-38 60 52 137 0
-38 60 52 -137 0
-32 -28 20 138 0
-32 -28 20 -138 0
35 1 -52 139 0
35 1 -52 -139 0
-35 31 25 140 0
-35 31 25 -140 0
45 31 -53 141 0
45 31 -53 -141 0
49 -62 57 142 0
49 -62 57 -142 0
57 -75 41 143 0
57 -75 41 -143 0
-28 12 -5 144 0
-28 12 -5 -144 0
-12 -47 75 145 0
-12 -47 75 -145 0
-44 -30 -56 146 0
-44 -30 -56 -146 0
-45 40 -34 147 0
-45 40 -34 -147 0
-51 -8 14 148 0
-51 -8 14 -148 0
5 27 -36 149 0
5 27 -36 -149 0
-59 15 24 150 0
-59 15 24 -150 0
-62 -58 53 151 0
-62 -58 53 -151 0
-20 24 71 152 0
-20 24 71 -152 0
-26 -69 11 153 0
-26 -69 11 -153 0
63 -50 -37 154 0
63 -50 -37 -154 0
75 42 -55 155 0
75 42 -55 -155 0
46 -13 51 156 0
46 -13 51 -156 0
-54 -74 -53 157 0
-54 -74 -53 -157 0
-53 -3 65 158 0
-53 -3 65 -158 0
74 -29 -11 159 0
74 -29 -11 -159 0
-74 -52 -36 160 0
-74 -52 -36 -160 0
-46 -74 -22 161 0
-46 -74 -22 -161 0
48 52 29 162 0
48 52 29 -162 0
-75 -31 -15 163 0
-75 -31 -15 -163 0
62 25 -61 164 0
62 25 -61 -164 0
-20 -52 16 165 0
-20 -52 16 -165 0
-44 22 -75 166 0
-44 22 -75 -166 0
-41 62 -29 167 0
-41 62 -29 -167 0
20 -9 13 168 0
20 -9 13 -168 0
-10 58 33 169 0
-10 58 33 -169 0
-50 23 -10 170 0
-50 23 -10 -170 0
-66 -64 7 171 0
-66 -64 7 -171 0
-43 20 9 172 0
-43 20 9 -172 0
-53 -33 25 173 0
-53 -33 25 -173 0
74 -2 4 174 0
74 -2 4 -174 0
-65 47 -30 175 0
-65 47 -30 -175 0
-60 27 39 176 0
-60 27 39 -176 0
14 -59 -37 177 0
14 -59 -37 -177 0
-38 33 -8 178 0
-38 33 -8 -178 0
9 -22 -1 179 0
9 -22 -1 -179 0
-20 -43 44 180 0
-20 -43 44 -180 0
-25 27 -31 181 0
-25 27 -31 -181 0
-6 -32 31 182 0
-6 -32 31 -182 0
16 -43 24 183 0
16 -43 24 -183 0
-12 25 -24 184 0
-12 25 -24 -184 0
-32 -66 -18 185 0
-32 -66 -18 -185 0
-24 -25 30 186 0
-24 -25 30 -186 0
-74 28 2 187 0
-74 28 2 -187 0
-67 -6 -41 188 0
-67 -6 -41 -188 0
6 -8 14 189 0
6 -8 14 -189 0
73 29 26 190 0
73 29 26 -190 0
57 51 -44 191 0
57 51 -44 -191 0
-47 -16 68 192 0
-47 -16 68 -192 0
65 -58 35 193 0
65 -58 35 -193 0
20 58 38 194 0
20 58 38 -194 0
68 10 65 195 0
68 10 65 -195 0
38 6 67 196 0
38 6 67 -196 0
-47 64 25 197 0
-47 64 25 -197 0
69 -26 -73 198 0
69 -26 -73 -198 0
59 1 -31 199 0
59 1 -31 -199 0
-57 -27 52 200 0
-57 -27 52 -200 0
62 7 -54 201 0
62 7 -54 -201 0
-59 12 23 202 0
-59 12 23 -202 0
-73 -24 44 203 0
-73 -24 44 -203 0
54 -29 48 204 0
54 -29 48 -204 0
38 -48 -75 205 0
38 -48 -75 -205 0
14 56 40 206 0
14 56 40 -206 0
9 -16 -38 207 0
9 -16 -38 -207 0
47 -62 13 208 0
47 -62 13 -208 0
41 19 40 209 0
41 19 40 -209 0
-43 -69 -9 210 0
-43 -69 -9 -210 0
-30 -14 -38 211 0
-30 -14 -38 -211 0
-21 48 -58 212 0
-21 48 -58 -212 0
-47 -49 -33 213 0
-47 -49 -33 -213 0
71 -30 -15 214 0
71 -30 -15 -214 0
70 -11 -38 215 0
70 -11 -38 -215 0
61 9 51 216 0
61 9 51 -216 0
-65 23 -62 217 0
-65 23 -62 -217 0
-19 53 39 218 0
-19 53 39 -218 0
-48 -33 56 219 0
-48 -33 56 -219 0
-33 -63 35 220 0
-33 -63 35 -220 0
34 -51 22 221 0
34 -51 22 -221 0
24 65 -47 222 0
24 65 -47 -222 0
74 56 -30 223 0
74 56 -30 -223 0
-63 -4 25 224 0
-63 -4 25 -224 0
67 23 -4 225 0
67 23 -4 -225 0
-40 -51 -46 226 0
-40 -51 -46 -226 0
-10 8 -34 227 0
-10 8 -34 -227 0
-33 -16 51 228 0
-33 -16 51 -228 0
53 41 10 229 0
53 41 10 -229 0
19 1 -23 230 0
19 1 -23 -230 0
-18 -67 17 231 0
-18 -67 17 -231 0
-33 -62 10 232 0
-33 -62 10 -232 0
62 -75 43 233 0
62 -75 43 -233 0
-44 -39 -60 234 0
-44 -39 -60 -234 0
54 60 69 235 0
54 60 69 -235 0
-42 25 -12 236 0
-42 25 -12 -236 0
-60 44 50 237 0
-60 44 50 -237 0
-21 17 63 238 0
-21 17 63 -238 0
26 41 -68 239 0
26 41 -68 -239 0
-57 -66 55 240 0
-57 -66 55 -240 0
25 22 12 241 0
25 22 12 -241 0
-68 3 -51 242 0
-68 3 -51 -242 0
-7 -58 9 243 0
-7 -58 9 -243 0
-3 -66 -52 244 0
-3 -66 -52 -244 0
56 51 -50 245 0
56 51 -50 -245 0
-36 -57 69 246 0
-36 -57 69 -246 0
48 -57 -30 247 0
48 -57 -30 -247 0
16 -49 50 248 0
16 -49 50 -248 0
35 -46 -5 249 0
35 -46 -5 -249 0
-70 -21 49 250 0
-70 -21 49 -250 0
-16 -63 10 251 0
-16 -63 10 -251 0
-35 34 -66 252 0
-35 34 -66 -252 0
73 50 -32 253 0
73 50 -32 -253 0
-56 64 -50 254 0
-56 64 -50 -254 0
62 49 21 255 0
62 49 21 -255 0
-46 44 -14 256 0
-46 44 -14 -256 0
16 -66 24 257 0
16 -66 24 -257 0
64 -45 75 258 0
64 -45 75 -258 0
-66 -47 6 259 0
-66 -47 6 -259 0
12 -26 7 260 0
12 -26 7 -260 0
-58 27 3 261 0
-58 27 3 -261 0
62 23 -24 262 0
62 23 -24 -262 0
36 -19 41 263 0
36 -19 41 -263 0
-51 -29 -3 264 0
-51 -29 -3 -264 0
15 4 -68 265 0
15 4 -68 -265 0
-55 19 1 266 0
-55 19 1 -266 0
-16 2 -30 267 0
-16 2 -30 -267 0
35 48 -2 268 0
35 48 -2 -268 0
32 -58 -68 269 0
32 -58 -68 -269 0
-2 -53 64 270 0
-2 -53 64 -270 0
-43 53 -44 271 0
-43 53 -44 -271 0
50 52 -61 272 0
50 52 -61 -272 0
-62 -51 -46 273 0
-62 -51 -46 -273 0
28 -8 -35 274 0
28 -8 -35 -274 0
-6 44 -51 275 0
-6 44 -51 -275 0
-19 -5 -27 276 0
-19 -5 -27 -276 0
46 22 -38 277 0
46 22 -38 -277 0
-29 -12 28 278 0
-29 -12 28 -278 0
51 -28 -11 279 0
51 -28 -11 -279 0
-8 -53 -22 280 0
-8 -53 -22 -280 0
-32 -65 63 281 0
-32 -65 63 -281 0
44 -23 56 282 0
44 -23 56 -282 0
59 7 17 283 0
59 7 17 -283 0
16 -57 44 284 0
16 -57 44 -284 0
4 -75 -69 285 0
4 -75 -69 -285 0
-9 -14 30 286 0
-9 -14 30 -286 0
31 -41 29 287 0
31 -41 29 -287 0
18 -31 14 288 0
18 -31 14 -288 0
51 58 -1 289 0
51 58 -1 -289 0
35 13 -67 290 0
35 13 -67 -290 0
68 -46 -64 291 0
68 -46 -64 -291 0
-28 73 -25 292 0
-28 73 -25 -292 0
-63 -27 1 293 0
-63 -27 1 -293 0
-36 -52 21 294 0
-36 -52 21 -294 0
-13 72 -5 295 0
-13 72 -5 -295 0
-33 -5 42 296 0
-33 -5 42 -296 0
-7 -43 -51 297 0
-7 -43 -51 -297 0
-50 -4 -75 298 0
-50 -4 -75 -298 0
70 24 45 299 0
70 24 45 -299 0
-27 -16 32 300 0
-27 -16 32 -300 0
-14 65 51 301 0
-14 65 51 -301 0
-74 -4 53 302 0
-74 -4 53 -302 0
35 -59 24 303 0
35 -59 24 -303 0
4 -71 62 304 0
4 -71 62 -304 0
45 -13 42 305 0
45 -13 42 -305 0
-11 -7 -17 306 0
-11 -7 -17 -306 0
-63 -72 55 307 0
-63 -72 55 -307 0
66 17 -19 308 0
66 17 -19 -308 0
32 -30 -60 309 0
32 -30 -60 -309 0
34 18 -70 310 0
34 18 -70 -310 0
-28 29 -69 311 0
-28 29 -69 -311 0
21 -3 -64 312 0
21 -3 -64 -312 0
-35 -34 63 313 0
-35 -34 63 -313 0
43 4 28 314 0
43 4 28 -314 0
-56 -33 -4 315 0
-56 -33 -4 -315 0
-9 5 -60 316 0
-9 5 -60 -316 0
-74 -22 40 317 0
-74 -22 40 -317 0
34 -23 72 318 0
34 -23 72 -318 0
54 74 -53 319 0
54 74 -53 -319 0
16 -75 26 320 0
16 -75 26 -320 0
-11 -65 7 321 0
-11 -65 7 -321 0
46 -41 48 322 0
46 -41 48 -322 0
20 72 -61 323 0
20 72 -61 -323 0
27 -62 -54 324 0
27 -62 -54 -324 0
72 8 -74 325 0
72 8 -74 -325 0
24 37 44 326 0
24 37 44 -326 0
56 3 51 327 0
56 3 51 -327 0
-65 -32 11 328 0
-65 -32 11 -328 0
31 75 -5 329 0
31 75 -5 -329 0
7 75 5 330 0
7 75 5 -330 0
59 -45 68 331 0
59 -45 68 -331 0
38 55 -27 332 0
38 55 -27 -332 0
27 -73 -70 333 0
27 -73 -70 -333 0
-55 3 -43 334 0
-55 3 -43 -334 0
-55 18 -45 335 0
-55 18 -45 -335 0
16 6 36 336 0
16 6 36 -336 0
-33 71 15 337 0
-33 71 15 -337 0
22 -34 -19 338 0
22 -34 -19 -338 0
61 50 69 339 0
61 50 69 -339 0
-73 -13 -22 340 0
-73 -13 -22 -340 0
-33 12 50 341 0
-33 12 50 -341 0
-29 52 3 342 0
-29 52 3 -342 0
65 -58 -44 343 0
65 -58 -44 -343 0
-74 60 -13 344 0
-74 60 -13 -344 0
72 -10 -57 345 0
72 -10 -57 -345 0
61 9 65 346 0
61 9 65 -346 0
-42 -30 61 347 0
-42 -30 61 -347 0
54 -62 5 348 0
54 -62 5 -348 0
-61 -69 64 349 0
-61 -69 64 -349 0
42 -57 -10 350 0
42 -57 -10 -350 0
-2 60 -69 351 0
-2 60 -69 -351 0
-75 62 25 352 0
-75 62 25 -352 0
8 10 12 353 0
8 10 12 -353 0
17 -71 3 354 0
17 -71 3 -354 0
56 37 -13 355 0
56 37 -13 -355 0
-6 -20 -66 356 0
-6 -20 -66 -356 0
-72 -26 11 357 0
-72 -26 11 -357 0
65 66 -41 358 0
65 66 -41 -358 0
15 -39 38 359 0
15 -39 38 -359 0
21 33 55 360 0
21 33 55 -360 0
30 -43 -36 361 0
30 -43 -36 -361 0
7 36 26 362 0
7 36 26 -362 0
50 7 72 363 0
50 7 72 -363 0
-57 23 20 364 0
-57 23 20 -364 0
61 66 17 365 0
61 66 17 -365 0
-49 71 -68 366 0
-49 71 -68 -366 0
75 71 17 367 0
75 71 17 -367 0
67 20 -6 368 0
67 20 -6 -368 0
50 -19 -7 369 0
50 -19 -7 -369 0
75 -43 61 370 0
75 -43 61 -370 0
66 11 -60 371 0
66 11 -60 -371 0
21 -19 -2 372 0
21 -19 -2 -372 0
54 61 -74 373 0
54 61 -74 -373 0
-55 42 68 374 0
-55 42 68 -374 0
69 -62 -23 375 0
69 -62 -23 -375 0
-2 -47 -51 376 0
-2 -47 -51 -376 0
-47 -18 71 377 0
-47 -18 71 -377 0
-41 30 -23 378 0
-41 30 -23 -378 0
25 15 14 379 0
25 15 14 -379 0
54 2 -18 380 0
54 2 -18 -380 0
43 15 -46 381 0
43 15 -46 -381 0
-70 47 61 382 0
-70 47 61 -382 0
-28 60 68 383 0
-28 60 68 -383 0
22 -48 -43 384 0
22 -48 -43 -384 0
66 -44 -53 385 0
66 -44 -53 -385 0
-8 13 5 386 0
-8 13 5 -386 0
22 25 -53 387 0
22 25 -53 -387 0
46 43 57 388 0
46 43 57 -388 0
65 -39 -53 389 0
65 -39 -53 -389 0
-9 -64 -11 390 0
-9 -64 -11 -390 0
-52 -6 69 391 0
-52 -6 69 -391 0
-63 6 -49 392 0
-63 6 -49 -392 0
37 59 -32 393 0
37 59 -32 -393 0
24 -11 13 394 0
24 -11 13 -394 0
-43 -52 -75 395 0
-43 -52 -75 -395 0
35 -15 -3 396 0
35 -15 -3 -396 0
53 59 67 397 0
53 59 67 -397 0
-15 61 64 398 0
-15 61 64 -398 0
20 28 -21 399 0
20 28 -21 -399 0
-43 -72 41 400 0
-43 -72 41 -400 0
401 402 403 404 0
401 402 403 -404 0
401 402 -403 404 0
401 402 -403 -404 0
401 -402 403 404 0
401 -402 403 -404 0
401 -402 -403 404 0
401 -402 -403 -404 0
-401 402 403 404 0
-401 402 403 -404 0
-401 402 -403 404 0
-401 402 -403 -404 0
-401 -402 403 404 0
-401 -402 403 -404 0
-401 -402 -403 404 0
-401 -402 -403 -404 0
405 406 407 408 0
405 406 407 -408 0
405 406 -407 408 0
405 406 -407 -408 0
405 -406 407 408 0
405 -406 407 -408 0
405 -406 -407 408 0
405 -406 -407 -408 0
-405 406 407 408 0
-405 406 407 -408 0
-405 406 -407 408 0
-405 406 -407 -408 0
-405 -406 407 408 0
-405 -406 407 -408 0
-405 -406 -407 408 0
-405 -406 -407 -408 0
409 410 411 412 0
409 410 411 -412 0
409 410 -411 412 0
409 410 -411 -412 0
409 -410 411 412 0
409 -410 411 -412 0
409 -410 -411 412 0
409 -410 -411 -412 0
-409 410 411 412 0
-409 410 411 -412 0
-409 410 -411 412 0
-409 410 -411 -412 0
-409 -410 411 412 0
-409 -410 411 -412 0
-409 -410 -411 412 0
-409 -410 -411 -412 0
